c File: data_files/evolved_graphs/g5317.col
c
c Auto generated graph
c
p edge 100 1718
e 1 6
e 1 7
e 1 14
e 1 19
e 1 20
e 1 25
e 1 31
e 1 33
e 1 34
e 1 40
e 1 41
e 1 43
e 1 44
e 1 47
e 1 52
e 1 53
e 1 55
e 1 60
e 1 61
e 1 67
e 1 68
e 1 69
e 1 70
e 1 85
e 1 86
e 1 87
e 1 88
e 1 89
e 1 94
e 1 97
e 1 99
e 2 4
e 2 6
e 2 13
e 2 14
e 2 23
e 2 24
e 2 31
e 2 33
e 2 34
e 2 36
e 2 37
e 2 43
e 2 44
e 2 47
e 2 50
e 2 55
e 2 56
e 2 58
e 2 61
e 2 62
e 2 66
e 2 70
e 2 80
e 2 81
e 2 82
e 2 84
e 2 86
e 2 87
e 2 91
e 2 93
e 2 96
e 2 99
e 2 100
e 3 12
e 3 22
e 3 26
e 3 28
e 3 29
e 3 34
e 3 37
e 3 40
e 3 45
e 3 46
e 3 47
e 3 49
e 3 51
e 3 52
e 3 58
e 3 59
e 3 62
e 3 63
e 3 64
e 3 69
e 3 70
e 3 71
e 3 77
e 3 78
e 3 81
e 3 85
e 3 86
e 3 87
e 3 89
e 3 90
e 3 91
e 3 92
e 3 93
e 3 94
e 3 98
e 3 99
e 4 7
e 4 9
e 4 12
e 4 14
e 4 24
e 4 30
e 4 31
e 4 32
e 4 33
e 4 34
e 4 41
e 4 45
e 4 46
e 4 49
e 4 56
e 4 57
e 4 59
e 4 61
e 4 63
e 4 68
e 4 77
e 4 78
e 4 79
e 4 83
e 4 84
e 4 88
e 4 90
e 4 91
e 4 97
e 5 8
e 5 16
e 5 23
e 5 28
e 5 32
e 5 33
e 5 35
e 5 37
e 5 39
e 5 40
e 5 41
e 5 43
e 5 48
e 5 52
e 5 53
e 5 56
e 5 64
e 5 65
e 5 66
e 5 69
e 5 71
e 5 76
e 5 80
e 5 83
e 5 88
e 5 89
e 5 90
e 5 91
e 5 96
e 6 9
e 6 14
e 6 22
e 6 27
e 6 29
e 6 30
e 6 36
e 6 39
e 6 40
e 6 46
e 6 48
e 6 52
e 6 54
e 6 58
e 6 59
e 6 62
e 6 64
e 6 65
e 6 66
e 6 69
e 6 79
e 6 80
e 6 81
e 6 82
e 6 83
e 6 85
e 6 90
e 6 93
e 6 94
e 6 95
e 6 98
e 7 20
e 7 24
e 7 26
e 7 27
e 7 32
e 7 33
e 7 34
e 7 35
e 7 36
e 7 39
e 7 40
e 7 50
e 7 51
e 7 53
e 7 54
e 7 57
e 7 60
e 7 62
e 7 63
e 7 80
e 7 81
e 7 82
e 7 83
e 7 88
e 7 89
e 7 90
e 7 91
e 7 92
e 7 99
e 8 13
e 8 17
e 8 27
e 8 30
e 8 33
e 8 40
e 8 41
e 8 42
e 8 43
e 8 44
e 8 45
e 8 47
e 8 51
e 8 52
e 8 53
e 8 56
e 8 59
e 8 61
e 8 62
e 8 67
e 8 72
e 8 79
e 8 80
e 8 81
e 8 84
e 8 89
e 8 92
e 8 99
e 8 100
e 9 12
e 9 13
e 9 14
e 9 18
e 9 21
e 9 22
e 9 30
e 9 32
e 9 37
e 9 49
e 9 52
e 9 68
e 9 71
e 9 82
e 9 89
e 9 93
e 9 95
e 9 96
e 9 98
e 9 99
e 11 16
e 11 17
e 11 20
e 11 22
e 11 23
e 11 24
e 11 26
e 11 28
e 11 32
e 11 35
e 11 36
e 11 39
e 11 40
e 11 43
e 11 44
e 11 45
e 11 48
e 11 60
e 11 61
e 11 65
e 11 66
e 11 67
e 11 69
e 11 76
e 11 77
e 11 78
e 11 79
e 11 82
e 11 85
e 11 90
e 11 94
e 11 97
e 11 98
e 11 99
e 12 14
e 12 17
e 12 18
e 12 22
e 12 23
e 12 24
e 12 25
e 12 27
e 12 32
e 12 35
e 12 36
e 12 37
e 12 39
e 12 40
e 12 41
e 12 45
e 12 68
e 12 70
e 12 73
e 12 74
e 12 76
e 12 78
e 12 79
e 12 80
e 12 81
e 12 82
e 12 84
e 12 85
e 12 86
e 12 87
e 12 97
e 12 99
e 13 14
e 13 16
e 13 21
e 13 25
e 13 26
e 13 27
e 13 28
e 13 29
e 13 32
e 13 35
e 13 37
e 13 39
e 13 40
e 13 46
e 13 47
e 13 48
e 13 49
e 13 63
e 13 66
e 13 67
e 13 68
e 13 69
e 13 72
e 13 78
e 13 79
e 13 80
e 13 81
e 13 84
e 13 92
e 13 94
e 13 96
e 13 97
e 14 16
e 14 17
e 14 20
e 14 24
e 14 28
e 14 30
e 14 32
e 14 34
e 14 35
e 14 38
e 14 41
e 14 42
e 14 44
e 14 45
e 14 49
e 14 58
e 14 59
e 14 68
e 14 72
e 14 73
e 14 76
e 14 77
e 14 80
e 14 82
e 14 85
e 14 86
e 14 87
e 14 89
e 14 91
e 14 94
e 14 97
e 14 98
e 15 16
e 15 18
e 15 25
e 15 29
e 15 32
e 15 34
e 15 38
e 15 39
e 15 40
e 15 42
e 15 44
e 15 46
e 15 51
e 15 55
e 15 56
e 15 57
e 15 61
e 15 64
e 15 68
e 15 70
e 15 74
e 15 75
e 15 77
e 15 78
e 15 79
e 15 80
e 15 82
e 15 85
e 15 87
e 15 98
e 15 99
e 15 100
e 16 20
e 16 21
e 16 22
e 16 26
e 16 27
e 16 29
e 16 30
e 16 31
e 16 37
e 16 38
e 16 39
e 16 40
e 16 41
e 16 46
e 16 49
e 16 53
e 16 55
e 16 56
e 16 57
e 16 65
e 16 67
e 16 71
e 16 72
e 16 73
e 16 78
e 16 80
e 16 82
e 16 83
e 16 90
e 16 94
e 16 95
e 16 97
e 17 18
e 17 19
e 17 20
e 17 21
e 17 22
e 17 27
e 17 28
e 17 29
e 17 34
e 17 35
e 17 36
e 17 37
e 17 39
e 17 40
e 17 45
e 17 47
e 17 48
e 17 51
e 17 52
e 17 53
e 17 54
e 17 58
e 17 67
e 17 72
e 17 74
e 17 75
e 17 77
e 17 82
e 17 84
e 17 88
e 17 89
e 17 92
e 17 93
e 17 96
e 17 98
e 17 100
e 18 19
e 18 22
e 18 26
e 18 27
e 18 38
e 18 40
e 18 43
e 18 44
e 18 45
e 18 48
e 18 49
e 18 50
e 18 52
e 18 53
e 18 55
e 18 56
e 18 58
e 18 68
e 18 74
e 18 75
e 18 82
e 18 89
e 18 91
e 18 94
e 18 97
e 18 100
e 19 21
e 19 26
e 19 27
e 19 30
e 19 35
e 19 36
e 19 38
e 19 39
e 19 43
e 19 44
e 19 52
e 19 53
e 19 55
e 19 56
e 19 59
e 19 63
e 19 64
e 19 69
e 19 71
e 19 76
e 19 77
e 19 78
e 19 82
e 19 84
e 19 86
e 19 88
e 19 93
e 19 94
e 19 95
e 19 96
e 20 21
e 20 25
e 20 27
e 20 29
e 20 31
e 20 34
e 20 35
e 20 38
e 20 42
e 20 43
e 20 44
e 20 45
e 20 49
e 20 50
e 20 58
e 20 62
e 20 64
e 20 69
e 20 71
e 20 73
e 20 75
e 20 77
e 20 78
e 20 80
e 20 81
e 20 83
e 20 84
e 20 85
e 20 86
e 20 87
e 20 88
e 20 90
e 20 99
e 20 100
e 21 24
e 21 26
e 21 27
e 21 31
e 21 32
e 21 37
e 21 40
e 21 41
e 21 42
e 21 43
e 21 46
e 21 51
e 21 53
e 21 59
e 21 60
e 21 62
e 21 67
e 21 69
e 21 70
e 21 75
e 21 78
e 21 81
e 21 82
e 21 86
e 21 87
e 21 88
e 22 26
e 22 35
e 22 36
e 22 37
e 22 38
e 22 39
e 22 40
e 22 41
e 22 44
e 22 45
e 22 49
e 22 51
e 22 53
e 22 55
e 22 59
e 22 65
e 22 66
e 22 68
e 22 72
e 22 73
e 22 74
e 22 78
e 22 80
e 22 81
e 22 87
e 22 89
e 22 92
e 22 93
e 22 95
e 22 99
e 22 100
e 23 24
e 23 27
e 23 29
e 23 31
e 23 39
e 23 40
e 23 41
e 23 43
e 23 44
e 23 46
e 23 52
e 23 54
e 23 61
e 23 63
e 23 64
e 23 66
e 23 67
e 23 69
e 23 70
e 23 73
e 23 74
e 23 75
e 23 76
e 23 77
e 23 80
e 23 81
e 23 84
e 23 89
e 23 90
e 23 92
e 23 94
e 23 95
e 23 96
e 23 99
e 23 100
e 24 30
e 24 36
e 24 38
e 24 41
e 24 44
e 24 45
e 24 46
e 24 47
e 24 48
e 24 50
e 24 52
e 24 54
e 24 55
e 24 57
e 24 60
e 24 62
e 24 67
e 24 70
e 24 75
e 24 79
e 24 80
e 24 83
e 24 86
e 24 87
e 24 89
e 24 91
e 24 92
e 24 94
e 24 95
e 24 98
e 25 29
e 25 34
e 25 35
e 25 36
e 25 37
e 25 39
e 25 44
e 25 45
e 25 47
e 25 48
e 25 50
e 25 54
e 25 56
e 25 60
e 25 61
e 25 63
e 25 64
e 25 67
e 25 69
e 25 70
e 25 73
e 25 74
e 25 75
e 25 79
e 25 80
e 25 81
e 25 82
e 25 87
e 25 97
e 26 34
e 26 36
e 26 37
e 26 39
e 26 41
e 26 42
e 26 44
e 26 45
e 26 50
e 26 54
e 26 55
e 26 56
e 26 60
e 26 62
e 26 63
e 26 68
e 26 69
e 26 70
e 26 72
e 26 73
e 26 76
e 26 84
e 26 91
e 26 92
e 27 30
e 27 36
e 27 38
e 27 40
e 27 43
e 27 46
e 27 47
e 27 48
e 27 49
e 27 51
e 27 54
e 27 55
e 27 56
e 27 62
e 27 63
e 27 64
e 27 65
e 27 67
e 27 68
e 27 71
e 27 74
e 27 81
e 27 82
e 27 84
e 27 88
e 27 91
e 27 94
e 27 99
e 28 31
e 28 32
e 28 36
e 28 47
e 28 48
e 28 49
e 28 51
e 28 53
e 28 54
e 28 55
e 28 56
e 28 57
e 28 58
e 28 60
e 28 62
e 28 63
e 28 64
e 28 65
e 28 67
e 28 68
e 28 76
e 28 78
e 28 81
e 28 83
e 28 84
e 28 85
e 28 86
e 28 87
e 28 88
e 28 89
e 28 91
e 28 92
e 28 94
e 28 96
e 28 98
e 28 99
e 29 45
e 29 47
e 29 48
e 29 52
e 29 54
e 29 56
e 29 62
e 29 65
e 29 66
e 29 71
e 29 75
e 29 78
e 29 80
e 29 81
e 29 84
e 29 85
e 29 88
e 29 89
e 29 91
e 29 93
e 29 94
e 29 95
e 29 97
e 29 98
e 30 31
e 30 33
e 30 41
e 30 42
e 30 44
e 30 45
e 30 47
e 30 48
e 30 49
e 30 51
e 30 53
e 30 54
e 30 55
e 30 57
e 30 58
e 30 61
e 30 62
e 30 64
e 30 65
e 30 69
e 30 70
e 30 76
e 30 79
e 30 82
e 30 83
e 30 84
e 30 93
e 30 94
e 31 36
e 31 37
e 31 38
e 31 41
e 31 42
e 31 47
e 31 48
e 31 49
e 31 51
e 31 53
e 31 56
e 31 62
e 31 64
e 31 65
e 31 66
e 31 67
e 31 68
e 31 70
e 31 74
e 31 76
e 31 77
e 31 84
e 31 90
e 31 99
e 32 47
e 32 49
e 32 51
e 32 52
e 32 64
e 32 66
e 32 69
e 32 74
e 32 75
e 32 76
e 32 77
e 32 80
e 32 82
e 32 88
e 32 89
e 32 91
e 32 93
e 32 99
e 32 100
e 33 35
e 33 37
e 33 41
e 33 42
e 33 43
e 33 48
e 33 49
e 33 50
e 33 52
e 33 57
e 33 59
e 33 61
e 33 65
e 33 66
e 33 67
e 33 70
e 33 72
e 33 75
e 33 77
e 33 82
e 33 83
e 33 84
e 33 86
e 33 91
e 33 96
e 34 36
e 34 39
e 34 41
e 34 42
e 34 44
e 34 46
e 34 47
e 34 48
e 34 50
e 34 55
e 34 58
e 34 63
e 34 65
e 34 67
e 34 68
e 34 71
e 34 72
e 34 73
e 34 81
e 34 85
e 34 91
e 34 93
e 35 39
e 35 40
e 35 42
e 35 46
e 35 48
e 35 54
e 35 58
e 35 59
e 35 66
e 35 67
e 35 69
e 35 70
e 35 73
e 35 74
e 35 76
e 35 78
e 35 79
e 35 80
e 35 82
e 35 83
e 35 84
e 35 86
e 35 87
e 35 91
e 36 37
e 36 39
e 36 42
e 36 44
e 36 49
e 36 50
e 36 52
e 36 56
e 36 60
e 36 64
e 36 65
e 36 68
e 36 69
e 36 75
e 36 77
e 36 78
e 36 79
e 36 80
e 36 81
e 36 83
e 36 84
e 36 96
e 36 98
e 36 100
e 37 46
e 37 47
e 37 48
e 37 49
e 37 51
e 37 52
e 37 54
e 37 57
e 37 66
e 37 68
e 37 69
e 37 70
e 37 72
e 37 73
e 37 77
e 37 78
e 37 80
e 37 83
e 37 86
e 37 87
e 37 98
e 37 99
e 37 100
e 38 41
e 38 44
e 38 45
e 38 46
e 38 49
e 38 50
e 38 51
e 38 52
e 38 55
e 38 63
e 38 64
e 38 66
e 38 67
e 38 69
e 38 72
e 38 76
e 38 79
e 38 81
e 38 84
e 38 85
e 38 87
e 38 88
e 38 92
e 38 97
e 38 100
e 39 42
e 39 49
e 39 53
e 39 54
e 39 55
e 39 57
e 39 65
e 39 66
e 39 67
e 39 68
e 39 71
e 39 73
e 39 74
e 39 78
e 39 82
e 39 83
e 39 85
e 39 89
e 39 92
e 39 94
e 40 43
e 40 46
e 40 53
e 40 54
e 40 60
e 40 63
e 40 67
e 40 68
e 40 70
e 40 71
e 40 74
e 40 75
e 40 79
e 40 80
e 40 83
e 40 88
e 40 91
e 40 92
e 40 93
e 40 94
e 40 96
e 40 97
e 41 48
e 41 56
e 41 60
e 41 61
e 41 62
e 41 63
e 41 66
e 41 69
e 41 71
e 41 81
e 41 84
e 41 85
e 41 86
e 41 87
e 41 90
e 41 92
e 41 93
e 41 100
e 42 44
e 42 45
e 42 46
e 42 50
e 42 53
e 42 59
e 42 60
e 42 62
e 42 65
e 42 66
e 42 69
e 42 75
e 42 79
e 42 80
e 42 87
e 42 89
e 42 90
e 42 98
e 43 44
e 43 53
e 43 56
e 43 60
e 43 63
e 43 64
e 43 68
e 43 70
e 43 73
e 43 75
e 43 78
e 43 79
e 43 80
e 43 85
e 43 86
e 43 87
e 43 96
e 43 99
e 44 53
e 44 54
e 44 58
e 44 61
e 44 63
e 44 65
e 44 69
e 44 70
e 44 72
e 44 73
e 44 74
e 44 81
e 44 85
e 44 87
e 44 89
e 44 90
e 44 91
e 44 93
e 44 95
e 44 98
e 44 99
e 45 50
e 45 55
e 45 56
e 45 64
e 45 66
e 45 67
e 45 68
e 45 75
e 45 79
e 45 81
e 45 88
e 45 89
e 45 90
e 45 91
e 45 92
e 45 95
e 45 96
e 45 98
e 45 99
e 46 55
e 46 59
e 46 61
e 46 63
e 46 64
e 46 67
e 46 69
e 46 72
e 46 73
e 46 74
e 46 77
e 46 78
e 46 79
e 46 80
e 46 84
e 46 85
e 46 88
e 46 89
e 46 90
e 46 91
e 46 92
e 46 98
e 46 99
e 47 49
e 47 55
e 47 57
e 47 59
e 47 62
e 47 67
e 47 69
e 47 70
e 47 72
e 47 73
e 47 74
e 47 76
e 47 86
e 47 88
e 47 90
e 47 91
e 47 94
e 47 95
e 47 100
e 48 54
e 48 56
e 48 57
e 48 58
e 48 61
e 48 63
e 48 65
e 48 67
e 48 73
e 48 76
e 48 78
e 48 79
e 48 85
e 48 89
e 48 92
e 48 95
e 49 54
e 49 57
e 49 60
e 49 61
e 49 73
e 49 74
e 49 75
e 49 76
e 49 77
e 49 85
e 49 87
e 49 88
e 49 89
e 49 91
e 49 94
e 49 95
e 49 96
e 49 100
e 50 53
e 50 56
e 50 61
e 50 62
e 50 64
e 50 68
e 50 70
e 50 71
e 50 72
e 50 76
e 50 77
e 50 79
e 50 80
e 50 85
e 50 86
e 50 87
e 50 88
e 50 90
e 50 91
e 50 94
e 50 96
e 51 52
e 51 53
e 51 54
e 51 58
e 51 62
e 51 63
e 51 65
e 51 66
e 51 68
e 51 71
e 51 72
e 51 79
e 51 81
e 51 82
e 51 84
e 51 87
e 51 88
e 51 89
e 51 96
e 51 97
e 51 99
e 52 53
e 52 58
e 52 60
e 52 61
e 52 65
e 52 69
e 52 71
e 52 72
e 52 75
e 52 78
e 52 83
e 52 85
e 52 89
e 52 91
e 52 94
e 52 98
e 52 100
e 53 54
e 53 62
e 53 64
e 53 67
e 53 68
e 53 71
e 53 74
e 53 87
e 53 90
e 53 91
e 53 92
e 53 94
e 53 95
e 53 96
e 53 99
e 54 70
e 54 73
e 54 77
e 54 84
e 54 89
e 54 92
e 54 93
e 54 94
e 54 95
e 54 98
e 55 60
e 55 62
e 55 65
e 55 69
e 55 77
e 55 79
e 55 86
e 55 89
e 55 91
e 55 92
e 55 95
e 55 97
e 55 99
e 56 59
e 56 61
e 56 62
e 56 67
e 56 69
e 56 71
e 56 73
e 56 78
e 56 83
e 56 87
e 56 88
e 56 93
e 56 94
e 56 97
e 56 98
e 56 99
e 57 63
e 57 71
e 57 72
e 57 73
e 57 75
e 57 78
e 57 79
e 57 82
e 57 83
e 57 84
e 57 86
e 57 90
e 57 93
e 57 94
e 57 99
e 57 100
e 58 59
e 58 60
e 58 61
e 58 63
e 58 66
e 58 69
e 58 70
e 58 71
e 58 72
e 58 73
e 58 75
e 58 83
e 58 88
e 58 92
e 58 94
e 58 95
e 58 96
e 58 97
e 58 99
e 58 100
e 59 60
e 59 64
e 59 65
e 59 66
e 59 67
e 59 71
e 59 72
e 59 73
e 59 75
e 59 77
e 59 80
e 59 81
e 59 84
e 59 89
e 59 91
e 59 94
e 59 95
e 59 97
e 60 62
e 60 70
e 60 71
e 60 75
e 60 76
e 60 79
e 60 80
e 60 85
e 60 88
e 60 90
e 60 91
e 60 93
e 60 98
e 60 99
e 60 100
e 61 62
e 61 69
e 61 70
e 61 71
e 61 74
e 61 77
e 61 78
e 61 82
e 61 83
e 61 85
e 61 87
e 61 88
e 61 89
e 61 90
e 61 92
e 62 69
e 62 70
e 62 73
e 62 74
e 62 76
e 62 77
e 62 79
e 62 80
e 62 82
e 62 83
e 62 84
e 62 85
e 62 89
e 62 90
e 62 91
e 62 92
e 62 96
e 62 97
e 62 98
e 62 99
e 62 100
e 63 71
e 63 72
e 63 74
e 63 75
e 63 78
e 63 80
e 63 81
e 63 82
e 63 89
e 63 90
e 63 93
e 63 96
e 63 97
e 64 69
e 64 71
e 64 72
e 64 74
e 64 76
e 64 77
e 64 80
e 64 82
e 64 83
e 64 84
e 64 85
e 64 92
e 64 94
e 64 98
e 64 99
e 65 72
e 65 74
e 65 75
e 65 76
e 65 77
e 65 78
e 65 79
e 65 84
e 65 88
e 65 89
e 65 90
e 65 91
e 65 95
e 65 96
e 65 97
e 66 68
e 66 69
e 66 71
e 66 73
e 66 75
e 66 80
e 66 81
e 66 82
e 66 84
e 66 87
e 66 88
e 66 92
e 66 93
e 66 94
e 67 76
e 67 79
e 67 81
e 67 82
e 67 91
e 67 100
e 68 70
e 68 73
e 68 74
e 68 76
e 68 77
e 68 78
e 68 81
e 68 83
e 68 85
e 68 88
e 68 90
e 68 95
e 68 98
e 69 71
e 69 73
e 69 74
e 69 77
e 69 78
e 69 79
e 69 83
e 69 90
e 69 93
e 69 94
e 70 76
e 70 93
e 70 96
e 70 99
e 71 72
e 71 75
e 71 76
e 71 86
e 71 93
e 71 95
e 72 73
e 72 75
e 72 80
e 72 84
e 72 85
e 72 87
e 72 94
e 72 96
e 72 97
e 72 98
e 73 85
e 73 87
e 73 91
e 73 92
e 73 95
e 73 96
e 74 75
e 74 76
e 74 83
e 74 86
e 74 87
e 74 90
e 74 91
e 74 92
e 74 93
e 74 98
e 74 100
e 75 83
e 75 84
e 75 87
e 75 89
e 75 95
e 75 96
e 75 97
e 75 98
e 76 80
e 76 83
e 76 86
e 76 87
e 76 95
e 76 97
e 76 99
e 77 81
e 77 84
e 77 92
e 77 93
e 77 95
e 77 96
e 77 97
e 77 100
e 78 85
e 78 86
e 78 88
e 78 89
e 79 86
e 79 87
e 79 93
e 80 86
e 80 87
e 80 88
e 80 89
e 80 94
e 80 97
e 80 99
e 80 100
e 81 83
e 81 87
e 81 88
e 81 91
e 81 95
e 81 98
e 81 99
e 81 100
e 82 83
e 82 85
e 82 92
e 82 96
e 82 97
e 82 98
e 83 84
e 83 92
e 83 97
e 84 85
e 84 94
e 84 96
e 84 97
e 84 98
e 84 99
e 84 100
e 85 90
e 85 92
e 85 96
e 85 97
e 85 98
e 85 99
e 86 87
e 86 88
e 86 92
e 86 93
e 86 94
e 86 98
e 86 100
e 87 93
e 87 96
e 87 98
e 87 99
e 88 90
e 88 91
e 88 95
e 88 96
e 88 98
e 89 92
e 89 99
e 90 94
e 90 95
e 90 96
e 90 100
e 91 96
e 91 97
e 92 93
e 93 97
e 93 98
e 94 99
e 94 100
e 95 99
e 96 100
e 97 99
e 99 100
